column=9;
row=9;
left=[0, 0, 0, 4, 0, 0, 2, 0, 0];
right=[0, 0, 0, 0, 0, 3, 0, 1, 0];
top=[0, 2, 3, 0, 0, 0, 2, 2, 0];
bottom=[1, 2, 2, 4, 0, 0, 3, 0, 2];
Board=[|3,1,0,0,0,6,8,0,0|0,0,2,3,7,8,6,0,4|6,7,8,4,1,0,0,0,0|4,0,0,2,0,0,5,0,8|0,2,5,7,3,0,0,6,0|1,3,0,8,6,0,2,0,0|7,0,0,0,0,0,4,0,0|2,4,1,6,8,3,0,5,0|0,8,6,5,4,7,1,2,3|]